<number of tasks>
50

<cycle time>
1000

<order strength>
0.195


<task times>
1 142
2 71
3 200
4 45
5 45
6 329
7 75
8 70
9 152
10 42
11 34
12 191
13 171
14 23
15 104
16 31
17 100
18 234
19 47
20 96
21 196
22 64
23 93
24 134
25 33
26 94
27 263
28 209
29 222
30 148
31 224
32 32
33 114
34 22
35 100
36 114
37 119
38 23
39 80
40 87
41 22
42 38
43 175
44 113
45 220
46 26
47 190
48 99
49 68
50 61

<precedence relations>
1,10
2,10
3,10
4,10
5,11
5,17
6,12
6,15
6,16
6,18
7,13
7,14
7,18
7,35
7,41
8,27
10,19
10,20
10,21
10,22
10,23
11,24
12,25
13,26
15,27
18,38
18,50
19,29
19,34
20,35
22,32
23,31
23,32
24,28
25,30
26,30
27,33
28,37
29,36
31,43
34,38
35,38
35,50
36,39
37,41
37,49
38,40
39,42
39,44
39,45
39,46
41,43
41,47
42,48
46,49
46,50

<end>
